22
38
10 20
1 2
6 13
3 7
1 20
1 20
1 20
1 20
1 20
1 20
1 20
10 2000
1 20
1 20
1 20
1 20
1 20
1 20
1 20
1 20
1 20
1 20
1 20
1 20
1 20
10 2000
1 20
1 20
1 20
1 20
1 20
1 20
1 20
1 20
1 20
1 20
1 20
1 20